
Gurobi 11.0.3 (linux64) logging started Mon 18 Nov 2024 08:28:46 PM CST

Set parameter LogFile to value "/home/dlcole3/graph_abstraction/hierarchical_graphs/git_storage/CS1/HP_low_reserves/gurobi_logs/serial/logfile_ST8_4.log"

Gurobi 11.0.3 (linux64) logging started Mon 18 Nov 2024 08:30:15 PM CST

Set parameter LogFile to value "/home/dlcole3/graph_abstraction/hierarchical_graphs/git_storage/CS1/HP_low_reserves/gurobi_logs/serial/logfile_ST8_4.log"
Gurobi Optimizer version 11.0.3 build v11.0.3rc0 (linux64 - "Ubuntu 18.04.3 LTS")

CPU model: Intel(R) Xeon(R) CPU E5-2698 v4 @ 2.20GHz, instruction set [SSE2|AVX|AVX2]
Thread count: 40 physical cores, 80 logical processors, using up to 20 threads

Optimize a model with 29168 rows, 50688 columns and 136175 nonzeros
Model fingerprint: 0x8eb889e2
Variable types: 46944 continuous, 3744 integer (3744 binary)
Coefficient statistics:
  Matrix range     [6e-01, 2e+04]
  Objective range  [2e+00, 2e+04]
  Bounds range     [5e-02, 2e+05]
  RHS range        [5e-02, 7e+03]
Presolve removed 13857 rows and 38590 columns
Presolve time: 0.36s
Presolved: 15311 rows, 12098 columns, 64597 nonzeros
Variable types: 9106 continuous, 2992 integer (2992 binary)
Found heuristic solution: objective 186502.36171
Found heuristic solution: objective 163238.69951

Root relaxation: objective 5.887888e+04, 7901 iterations, 0.32 seconds (0.22 work units)

    Nodes    |    Current Node    |     Objective Bounds      |     Work
 Expl Unexpl |  Obj  Depth IntInf | Incumbent    BestBd   Gap | It/Node Time

     0     0 58878.8783    0   14 163238.700 58878.8783  63.9%     -    1s
H    0     0                    163238.69949 58878.8783  63.9%     -    1s
H    0     0                    120092.64702 58878.8783  51.0%     -    1s
     0     0 58975.8512    0   14 120092.647 58975.8512  50.9%     -    1s
     0     2 58975.8512    0   14 120092.647 58975.8512  50.9%     -    2s
H   31    52                    62269.000383 59262.2108  4.83%  18.1    2s
H   41    52                    60379.169861 59276.6212  1.83%  14.9    2s
H   79    37                    59587.127367 59276.6212  0.52%  10.0    2s
H  118    10                    59559.621304 59276.6212  0.48%   7.0    2s
H  129    13                    59552.721218 59501.2523  0.09%   6.7    2s

Explored 137 nodes (8775 simplex iterations) in 2.54 seconds (1.64 work units)
Thread count was 20 (of 80 available processors)

Solution count 9: 59552.7 59552.7 59559.6 ... 186502

Optimal solution found (tolerance 3.00e-03)
Best objective 5.955272121933e+04, best bound 5.950125229325e+04, gap 0.0864%

User-callback calls 1716, time in user-callback 0.00 sec
